
<<< setup


<<< generate

Version identifier: 12.10.0.0 | 2019-11-26 | 843d4de2ae
CPXPARAM_TimeLimit                               1200
Tried aggregator 3 times.
MIP Presolve eliminated 5130950 rows and 2897261 columns.
MIP Presolve modified 428556 coefficients.
Aggregator did 941 substitutions.
Reduced MIP has 111159 rows, 113348 columns, and 722747 nonzeros.
Reduced MIP has 113298 binaries, 0 generals, 0 SOSs, and 0 indicators.
Presolve time = 7.89 sec. (4727.46 ticks)
Found incumbent of value 5256.000000 after 11.23 sec. (5971.68 ticks)
Probing fixed 2695 vars, tightened 0 bounds.
Probing time = 48.03 sec. (9326.73 ticks)
Tried aggregator 1 time.
Detecting symmetries...
MIP Presolve eliminated 2695 rows and 2695 columns.
Reduced MIP has 108464 rows, 110653 columns, and 704681 nonzeros.
Reduced MIP has 110603 binaries, 0 generals, 0 SOSs, and 0 indicators.
Presolve time = 0.86 sec. (456.01 ticks)
Probing time = 0.30 sec. (59.35 ticks)
Clique table members: 394754.
MIP emphasis: balance optimality and feasibility.
MIP search method: dynamic search.
Parallel mode: deterministic, using up to 4 threads.
Root relaxation solution time = 5.13 sec. (3043.54 ticks)

        Nodes                                         Cuts/
   Node  Left     Objective  IInf  Best Integer    Best Bound    ItCnt     Gap

*     0+    0                         5256.0000   126602.0000              --- 
      0     0    69582.0000   543     5256.0000    69582.0000    11706     --- 
      0     0    69582.0000   543     5256.0000   Impl Bds: 4    11761     --- 
      0     0    69582.0000   543     5256.0000    Cuts: 1361    12936     --- 
      0     0    69582.0000   543     5256.0000    Cuts: 2180    21724     --- 
*     0+    0                        21044.0000    69582.0000           230.65%
      0     0        cutoff          21044.0000    69582.0000    21724  230.65%
Heuristic still looking.
      0     2    69582.0000   186    21044.0000    69582.0000    21724  230.65%
Elapsed time = 205.89 sec. (84023.15 ticks, tree = 0.02 MB, solutions = 2)
      1     3    69582.0000   269    21044.0000    69582.0000    35576  230.65%
      2     4    69582.0000   307    21044.0000    69582.0000    42437  230.65%
      3     4    69582.0000   272    21044.0000    69582.0000    35841  230.65%
      4     6    69582.0000   340    21044.0000    69582.0000    52462  230.65%
      5     5    69582.0000   378    21044.0000    69582.0000    51108  230.65%
      6     5    69582.0000   327    21044.0000    69582.0000    44078  230.65%
      7     8    69582.0000   373    21044.0000    69582.0000    68213  230.65%
      9     8    69582.0000   403    21044.0000    69582.0000    77627  230.65%
     10     3    69582.0000   181    21044.0000    69582.0000    21750  230.65%
     12    10    69582.0000   238    21044.0000    69582.0000    65908  230.65%
Elapsed time = 293.53 sec. (114117.63 ticks, tree = 0.11 MB, solutions = 2)
     14    12    69582.0000   340    21044.0000    69582.0000    67894  230.65%
     16    14    69582.0000   290    21044.0000    69582.0000    70206  230.65%
     17     9    69582.0000   370    21044.0000    69582.0000    86038  230.65%
     18     9    69582.0000   360    21044.0000    69582.0000   105760  230.65%
     20    12    69582.0000   399    21044.0000    69582.0000   112831  230.65%
     21    15    69582.0000   443    21044.0000    69582.0000   172368  230.65%
     23    14    69582.0000   340    21044.0000    69582.0000   161569  230.65%
     24    22    69582.0000   352    21044.0000    69582.0000   212153  230.65%
     27    25    69582.0000   290    21044.0000    69582.0000   254288  230.65%
     29    25    69582.0000   291    21044.0000    69582.0000   254901  230.65%
Elapsed time = 418.75 sec. (144317.86 ticks, tree = 1.42 MB, solutions = 2)
     32    27    69582.0000   298    21044.0000    69582.0000   256597  230.65%
     33    28    69582.0000   304    21044.0000    69582.0000   274729  230.65%
     34    23    69582.0000   345    21044.0000    69582.0000   232370  230.65%
     35    24    69582.0000   320    21044.0000    69582.0000   296053  230.65%
     36    27    69582.0000   395    21044.0000    69582.0000   290314  230.65%
     38    36    69582.0000   337    21044.0000    69582.0000   391389  230.65%
     39    37    69582.0000   346    21044.0000    69582.0000   410828  230.65%
     40    38    69582.0000   356    21044.0000    69582.0000   411681  230.65%
     41    33    69582.0000   373    21044.0000    69582.0000   347561  230.65%
     42    39    69582.0000   355    21044.0000    69582.0000   433235  230.65%
Elapsed time = 705.34 sec. (197936.58 ticks, tree = 1.78 MB, solutions = 2)
     43    39    69582.0000   365    21044.0000    69582.0000   426235  230.65%
     45    41    69582.0000   354    21044.0000    69582.0000   444298  230.65%
     46    40    69582.0000   385    21044.0000    69582.0000   428090  230.65%
     48    42    69582.0000   333    21044.0000    69582.0000   456773  230.65%
     49    41    69582.0000   353    21044.0000    69582.0000   437384  230.65%
     50    40    69582.0000   423    21044.0000    69582.0000   453595  230.65%
     52    34    69582.0000   300    21044.0000    69582.0000   394776  230.65%
     54    44    69582.0000   319    21044.0000    69582.0000   480307  230.65%
     55    42    69582.0000   351    21044.0000    69582.0000   473285  230.65%
     58    50    69582.0000   303    21044.0000    69582.0000   536983  230.65%
Elapsed time = 802.00 sec. (223581.11 ticks, tree = 5.48 MB, solutions = 2)
     59    51    69582.0000   362    21044.0000    69582.0000   549416  230.65%
     60    50    69582.0000   331    21044.0000    69582.0000   537495  230.65%
     61    52    69582.0000   304    21044.0000    69582.0000   560873  230.65%
     62    43    69582.0000   314    21044.0000    69582.0000   498631  230.65%
     63    45    69582.0000   389    21044.0000    69582.0000   502191  230.65%
     64    61    69582.0000   346    21044.0000    69582.0000   677418  230.65%
     65    62    69582.0000   326    21044.0000    69582.0000   694361  230.65%
     66    63    69582.0000   359    21044.0000    69582.0000   696791  230.65%
     68    52    69582.0000   330    21044.0000    69582.0000   574812  230.65%
     69    62    69582.0000   404    21044.0000    69582.0000   697886  230.65%
Elapsed time = 950.09 sec. (266487.18 ticks, tree = 8.25 MB, solutions = 2)
     70    65    69582.0000   255    21044.0000    69582.0000   715480  230.65%
     71    55    69582.0000   341    21044.0000    69582.0000   610953  230.65%
     73    67    69582.0000   270    21044.0000    69582.0000   736884  230.65%
     74    69    69582.0000   344    21044.0000    69582.0000   763583  230.65%
     76    63    69582.0000   354    21044.0000    69582.0000   707193  230.65%
     78    69    69582.0000   309    21044.0000    69582.0000   753792  230.65%
     80    71    69582.0000   286    21044.0000    69582.0000   754171  230.65%
     82    73    69582.0000   267    21044.0000    69582.0000   754761  230.65%
     84    75    69582.0000   264    21044.0000    69582.0000   755528  230.65%
     85    71    69582.0000   432    21044.0000    69582.0000   783117  230.65%
Elapsed time = 1024.70 sec. (289394.90 ticks, tree = 8.75 MB, solutions = 2)
     86    76    69582.0000   295    21044.0000    69582.0000   755960  230.65%
     88    64    69582.0000   333    21044.0000    69582.0000   719323  230.65%
     91    81    69582.0000   263    21044.0000    69582.0000   782058  230.65%
     93    83    69582.0000   298    21044.0000    69582.0000   782686  230.65%
     97    72    69582.0000   392    21044.0000    69582.0000   796095  230.65%
     99    81    69582.0000   473    21044.0000    69582.0000   814050  230.65%
    100    87    69582.0000   354    21044.0000    69582.0000   879587  230.65%
    101    82    69582.0000   367    21044.0000    69582.0000   821145  230.65%
    103    87    69582.0000   409    21044.0000    69582.0000   850090  230.65%
    106    88    69582.0000   359    21044.0000    69582.0000   851266  230.65%
Elapsed time = 1110.59 sec. (313109.62 ticks, tree = 12.78 MB, solutions = 2)
    108    90    69582.0000   360    21044.0000    69582.0000   899309  230.65%
    111    87    69582.0000   263    21044.0000    69582.0000   783884  230.65%
    115    99    69582.0000   284    21044.0000    69582.0000   881696  230.65%
    119   101    69582.0000   243    21044.0000    69582.0000   883013  230.65%
    123   101    69582.0000   257    21044.0000    69582.0000   883824  230.65%
    129   102    69582.0000   362    21044.0000    69582.0000   915536  230.65%
    134   105    69582.0000   221    21044.0000    69582.0000   886084  230.65%
    140   107    69582.0000   243    21044.0000    69582.0000   886870  230.65%
    144   107    infeasible          21044.0000    69582.0000   888053  230.65%
    148   108    69582.0000   322    21044.0000    69582.0000   920530  230.65%
Elapsed time = 1158.06 sec. (330265.03 ticks, tree = 20.22 MB, solutions = 2)
    150   109    69582.0000   328    21044.0000    69582.0000   921485  230.65%
    159   114    69582.0000   346    21044.0000    69582.0000   948788  230.65%
    162   111    69582.0000   329    21044.0000    69582.0000   923012  230.65%
    167   119    69582.0000   320    21044.0000    69582.0000   984095  230.65%
    173   107    infeasible          21044.0000    69582.0000   891442  230.65%
    179   108    infeasible          21044.0000    69582.0000   892540  230.65%
    190   108    infeasible          21044.0000    69582.0000   893473  230.65%
    197   117    69582.0000   278    21044.0000    69582.0000   926996  230.65%
    205   117    69582.0000   295    21044.0000    69582.0000   927786  230.65%
    209   108    69582.0000   197    21044.0000    69582.0000   895757  230.65%
Elapsed time = 1193.01 sec. (342142.73 ticks, tree = 18.77 MB, solutions = 2)
    215   107    infeasible          21044.0000    69582.0000   896889  230.65%
    218   124    69582.0000   340    21044.0000    69582.0000   958715  230.65%

Implied bound cuts applied:  114
Flow cuts applied:  2

Root node processing (before b&c):
  Real time             =  203.84 sec. (83449.84 ticks)
Parallel b&c, 4 threads:
  Real time             =  996.78 sec. (263501.74 ticks)
  Sync time (average)   =  131.90 sec.
  Wait time (average)   =    0.00 sec.
                          ------------
Total (root+branch&cut) = 1200.63 sec. (346951.58 ticks)

<<< solve


OBJECTIVE: 21044

<<< post process


<<< done

